p edge 110 1207
v 1 5
v 2 4
v 3 1
v 4 1
v 5 6
v 6 1
v 7 3
v 8 10
v 9 6
v 10 1
v 11 7
v 12 10
v 13 1
v 14 2
v 15 3
v 16 5
v 17 7
v 18 3
v 19 9
v 20 4
v 21 6
v 22 7
v 23 6
v 24 8
v 25 6
v 26 1
v 27 1
v 28 5
v 29 8
v 30 2
v 31 7
v 32 3
v 33 6
v 34 7
v 35 3
v 36 2
v 37 8
v 38 6
v 39 1
v 40 4
v 41 7
v 42 8
v 43 4
v 44 8
v 45 10
v 46 7
v 47 2
v 48 7
v 49 9
v 50 1
v 51 10
v 52 5
v 53 7
v 54 6
v 55 3
v 56 3
v 57 7
v 58 3
v 59 7
v 60 4
v 61 5
v 62 3
v 63 7
v 64 10
v 65 10
v 66 9
v 67 1
v 68 8
v 69 5
v 70 2
v 71 2
v 72 1
v 73 10
v 74 5
v 75 8
v 76 9
v 77 2
v 78 10
v 79 5
v 80 10
v 81 10
v 82 5
v 83 4
v 84 7
v 85 1
v 86 6
v 87 9
v 88 7
v 89 9
v 90 6
v 91 1
v 92 3
v 93 9
v 94 7
v 95 3
v 96 8
v 97 6
v 98 4
v 99 6
v 100 10
v 101 6
v 102 7
v 103 1
v 104 6
v 105 2
v 106 9
v 107 4
v 108 3
v 109 8
v 110 9
e 1 6
e 1 16
e 1 18
e 1 19
e 1 24
e 1 25
e 1 33
e 1 36
e 1 39
e 1 41
e 1 44
e 1 48
e 1 58
e 1 61
e 1 62
e 1 63
e 1 64
e 1 65
e 1 67
e 1 70
e 1 73
e 1 76
e 1 78
e 1 81
e 1 91
e 1 95
e 1 100
e 1 109
e 2 5
e 2 22
e 2 28
e 2 31
e 2 35
e 2 43
e 2 45
e 2 53
e 2 55
e 2 56
e 2 80
e 2 83
e 2 90
e 2 97
e 2 101
e 2 102
e 2 105
e 2 106
e 2 108
e 3 4
e 3 7
e 3 9
e 3 15
e 3 20
e 3 26
e 3 34
e 3 46
e 3 47
e 3 50
e 3 54
e 3 68
e 3 82
e 3 89
e 3 98
e 3 110
e 4 7
e 4 8
e 4 9
e 4 15
e 4 20
e 4 22
e 4 26
e 4 32
e 4 34
e 4 46
e 4 47
e 4 50
e 4 54
e 4 68
e 4 72
e 4 75
e 4 82
e 4 89
e 4 92
e 4 98
e 4 110
e 5 10
e 5 14
e 5 28
e 5 31
e 5 35
e 5 40
e 5 45
e 5 52
e 5 53
e 5 55
e 5 69
e 5 77
e 5 80
e 5 83
e 5 87
e 5 106
e 6 16
e 6 18
e 6 19
e 6 24
e 6 33
e 6 36
e 6 39
e 6 41
e 6 44
e 6 48
e 6 62
e 6 64
e 6 65
e 6 67
e 6 73
e 6 78
e 6 91
e 6 100
e 7 8
e 7 9
e 7 11
e 7 15
e 7 22
e 7 26
e 7 30
e 7 34
e 7 43
e 7 46
e 7 47
e 7 50
e 7 54
e 7 56
e 7 68
e 7 75
e 7 82
e 7 89
e 7 90
e 7 92
e 7 98
e 7 101
e 7 102
e 7 108
e 7 110
e 8 9
e 8 11
e 8 12
e 8 20
e 8 22
e 8 27
e 8 29
e 8 30
e 8 32
e 8 34
e 8 42
e 8 46
e 8 47
e 8 54
e 8 56
e 8 60
e 8 68
e 8 72
e 8 75
e 8 82
e 8 84
e 8 88
e 8 90
e 8 92
e 8 98
e 8 99
e 8 102
e 8 103
e 8 110
e 9 11
e 9 15
e 9 20
e 9 22
e 9 26
e 9 27
e 9 32
e 9 34
e 9 46
e 9 47
e 9 50
e 9 54
e 9 68
e 9 72
e 9 75
e 9 82
e 9 89
e 9 92
e 9 98
e 9 110
e 10 14
e 10 28
e 10 35
e 10 40
e 10 45
e 10 52
e 10 55
e 10 69
e 10 77
e 10 80
e 10 87
e 10 104
e 10 106
e 11 12
e 11 20
e 11 22
e 11 27
e 11 29
e 11 30
e 11 32
e 11 34
e 11 42
e 11 46
e 11 47
e 11 51
e 11 54
e 11 56
e 11 60
e 11 68
e 11 72
e 11 75
e 11 84
e 11 86
e 11 88
e 11 90
e 11 92
e 11 99
e 11 102
e 11 103
e 11 110
e 12 29
e 12 30
e 12 39
e 12 42
e 12 51
e 12 60
e 12 61
e 12 70
e 12 75
e 12 76
e 12 81
e 12 84
e 12 86
e 12 88
e 12 90
e 12 91
e 12 95
e 12 99
e 12 103
e 13 21
e 13 29
e 13 37
e 13 38
e 13 41
e 13 49
e 13 51
e 13 57
e 13 60
e 13 66
e 13 70
e 13 71
e 13 76
e 13 85
e 13 86
e 13 88
e 13 91
e 13 93
e 13 94
e 13 95
e 13 96
e 13 107
e 14 28
e 14 35
e 14 40
e 14 45
e 14 52
e 14 55
e 14 69
e 14 77
e 14 80
e 14 83
e 14 87
e 14 104
e 14 106
e 15 26
e 15 34
e 15 46
e 15 50
e 15 54
e 15 82
e 15 89
e 15 98
e 15 110
e 16 17
e 16 18
e 16 23
e 16 25
e 16 33
e 16 44
e 16 48
e 16 58
e 16 59
e 16 62
e 16 63
e 16 64
e 16 67
e 16 73
e 16 74
e 16 78
e 16 79
e 16 100
e 16 104
e 16 109
e 17 23
e 17 25
e 17 28
e 17 35
e 17 40
e 17 52
e 17 58
e 17 59
e 17 61
e 17 63
e 17 69
e 17 77
e 17 79
e 17 80
e 17 87
e 17 97
e 17 100
e 17 104
e 17 105
e 17 106
e 17 109
e 18 19
e 18 24
e 18 25
e 18 33
e 18 36
e 18 44
e 18 48
e 18 62
e 18 64
e 18 67
e 18 73
e 18 74
e 18 78
e 18 100
e 18 109
e 19 24
e 19 33
e 19 36
e 19 39
e 19 41
e 19 44
e 19 48
e 19 64
e 19 65
e 19 67
e 19 70
e 19 71
e 19 76
e 19 78
e 19 81
e 19 85
e 19 91
e 19 95
e 19 100
e 20 27
e 20 32
e 20 46
e 20 68
e 20 72
e 20 75
e 20 82
e 20 89
e 20 92
e 20 98
e 20 110
e 21 27
e 21 37
e 21 38
e 21 49
e 21 51
e 21 57
e 21 66
e 21 86
e 21 88
e 21 93
e 21 94
e 21 96
e 21 107
e 22 30
e 22 31
e 22 32
e 22 34
e 22 42
e 22 43
e 22 46
e 22 47
e 22 54
e 22 56
e 22 75
e 22 84
e 22 90
e 22 92
e 22 97
e 22 99
e 22 101
e 22 102
e 22 103
e 22 108
e 22 110
e 23 25
e 23 35
e 23 40
e 23 44
e 23 52
e 23 58
e 23 59
e 23 62
e 23 63
e 23 73
e 23 74
e 23 78
e 23 79
e 23 87
e 23 100
e 23 104
e 23 105
e 23 109
e 24 33
e 24 36
e 24 39
e 24 41
e 24 44
e 24 48
e 24 62
e 24 64
e 24 65
e 24 67
e 24 73
e 24 78
e 24 81
e 24 91
e 24 100
e 25 40
e 25 44
e 25 58
e 25 59
e 25 61
e 25 62
e 25 63
e 25 73
e 25 74
e 25 78
e 25 79
e 25 100
e 25 104
e 25 105
e 25 109
e 26 34
e 26 46
e 26 47
e 26 50
e 26 54
e 26 68
e 26 82
e 26 89
e 26 98
e 26 110
e 27 29
e 27 32
e 27 46
e 27 51
e 27 66
e 27 68
e 27 72
e 27 75
e 27 88
e 27 92
e 27 98
e 27 110
e 28 31
e 28 35
e 28 40
e 28 43
e 28 45
e 28 52
e 28 53
e 28 55
e 28 56
e 28 69
e 28 77
e 28 80
e 28 83
e 28 87
e 28 90
e 28 97
e 28 102
e 28 105
e 28 106
e 28 108
e 29 30
e 29 39
e 29 42
e 29 51
e 29 60
e 29 61
e 29 70
e 29 75
e 29 76
e 29 81
e 29 84
e 29 86
e 29 88
e 29 90
e 29 91
e 29 92
e 29 95
e 29 99
e 29 103
e 30 31
e 30 32
e 30 34
e 30 42
e 30 46
e 30 47
e 30 54
e 30 56
e 30 60
e 30 61
e 30 75
e 30 84
e 30 90
e 30 92
e 30 97
e 30 99
e 30 102
e 30 103
e 30 108
e 30 110
e 31 35
e 31 43
e 31 45
e 31 52
e 31 53
e 31 55
e 31 56
e 31 80
e 31 83
e 31 87
e 31 90
e 31 97
e 31 101
e 31 102
e 31 105
e 31 106
e 31 108
e 32 34
e 32 46
e 32 47
e 32 54
e 32 68
e 32 72
e 32 75
e 32 82
e 32 88
e 32 89
e 32 92
e 32 98
e 32 110
e 33 36
e 33 39
e 33 41
e 33 44
e 33 48
e 33 62
e 33 64
e 33 65
e 33 67
e 33 70
e 33 73
e 33 76
e 33 78
e 33 81
e 33 85
e 33 91
e 33 95
e 33 100
e 34 43
e 34 46
e 34 47
e 34 50
e 34 54
e 34 56
e 34 68
e 34 75
e 34 82
e 34 89
e 34 90
e 34 92
e 34 98
e 34 101
e 34 102
e 34 108
e 34 110
e 35 40
e 35 45
e 35 52
e 35 55
e 35 58
e 35 59
e 35 63
e 35 69
e 35 77
e 35 79
e 35 80
e 35 83
e 35 87
e 35 97
e 35 104
e 35 105
e 35 106
e 35 108
e 36 39
e 36 41
e 36 44
e 36 48
e 36 64
e 36 65
e 36 67
e 36 70
e 36 71
e 36 73
e 36 76
e 36 78
e 36 81
e 36 85
e 36 91
e 36 95
e 36 100
e 37 38
e 37 49
e 37 51
e 37 57
e 37 66
e 37 88
e 37 93
e 37 94
e 37 96
e 37 107
e 38 49
e 38 51
e 38 57
e 38 66
e 38 71
e 38 76
e 38 85
e 38 86
e 38 88
e 38 93
e 38 94
e 38 95
e 38 96
e 38 107
e 39 41
e 39 44
e 39 48
e 39 51
e 39 60
e 39 61
e 39 65
e 39 67
e 39 70
e 39 71
e 39 76
e 39 78
e 39 81
e 39 84
e 39 85
e 39 86
e 39 91
e 39 95
e 39 100
e 39 103
e 40 52
e 40 55
e 40 58
e 40 59
e 40 63
e 40 69
e 40 77
e 40 79
e 40 80
e 40 87
e 40 104
e 40 105
e 40 106
e 41 48
e 41 49
e 41 65
e 41 67
e 41 70
e 41 71
e 41 76
e 41 81
e 41 85
e 41 91
e 41 95
e 41 96
e 41 107
e 42 47
e 42 51
e 42 56
e 42 60
e 42 61
e 42 70
e 42 75
e 42 81
e 42 84
e 42 86
e 42 90
e 42 92
e 42 97
e 42 99
e 42 102
e 42 103
e 42 108
e 43 45
e 43 47
e 43 53
e 43 54
e 43 56
e 43 83
e 43 90
e 43 97
e 43 101
e 43 102
e 43 108
e 44 48
e 44 58
e 44 61
e 44 62
e 44 63
e 44 64
e 44 65
e 44 67
e 44 70
e 44 73
e 44 74
e 44 78
e 44 81
e 44 91
e 44 100
e 44 109
e 45 52
e 45 53
e 45 55
e 45 56
e 45 69
e 45 77
e 45 80
e 45 83
e 45 87
e 45 97
e 45 101
e 45 102
e 45 105
e 45 106
e 45 108
e 46 47
e 46 50
e 46 54
e 46 56
e 46 68
e 46 72
e 46 75
e 46 82
e 46 89
e 46 90
e 46 92
e 46 98
e 46 99
e 46 102
e 46 110
e 47 50
e 47 54
e 47 56
e 47 68
e 47 75
e 47 82
e 47 89
e 47 90
e 47 92
e 47 97
e 47 98
e 47 99
e 47 101
e 47 102
e 47 108
e 47 110
e 48 62
e 48 64
e 48 65
e 48 67
e 48 70
e 48 73
e 48 78
e 48 81
e 48 91
e 48 100
e 49 51
e 49 57
e 49 66
e 49 71
e 49 76
e 49 85
e 49 86
e 49 88
e 49 93
e 49 94
e 49 95
e 49 96
e 49 107
e 50 54
e 50 82
e 50 89
e 50 98
e 50 101
e 50 110
e 51 57
e 51 60
e 51 66
e 51 70
e 51 71
e 51 76
e 51 81
e 51 84
e 51 85
e 51 86
e 51 88
e 51 91
e 51 93
e 51 94
e 51 95
e 51 96
e 51 99
e 51 103
e 51 107
e 52 55
e 52 58
e 52 59
e 52 63
e 52 69
e 52 77
e 52 79
e 52 80
e 52 83
e 52 87
e 52 97
e 52 104
e 52 105
e 52 106
e 53 55
e 53 83
e 53 97
e 53 101
e 53 106
e 53 108
e 54 56
e 54 68
e 54 75
e 54 82
e 54 89
e 54 92
e 54 98
e 54 101
e 54 102
e 54 110
e 55 69
e 55 77
e 55 80
e 55 83
e 55 87
e 55 106
e 56 61
e 56 75
e 56 80
e 56 83
e 56 84
e 56 90
e 56 97
e 56 99
e 56 101
e 56 102
e 56 105
e 56 108
e 57 66
e 57 71
e 57 76
e 57 85
e 57 86
e 57 88
e 57 93
e 57 94
e 57 96
e 57 107
e 58 59
e 58 61
e 58 63
e 58 73
e 58 78
e 58 79
e 58 80
e 58 84
e 58 87
e 58 100
e 58 104
e 58 105
e 58 109
e 59 63
e 59 69
e 59 74
e 59 77
e 59 79
e 59 80
e 59 87
e 59 104
e 59 105
e 59 109
e 60 61
e 60 70
e 60 75
e 60 76
e 60 81
e 60 84
e 60 86
e 60 88
e 60 90
e 60 91
e 60 95
e 60 99
e 60 103
e 61 63
e 61 70
e 61 78
e 61 79
e 61 80
e 61 81
e 61 84
e 61 90
e 61 91
e 61 97
e 61 99
e 61 100
e 61 103
e 61 105
e 61 108
e 61 109
e 62 64
e 62 67
e 62 73
e 62 74
e 62 78
e 62 100
e 62 109
e 63 73
e 63 74
e 63 78
e 63 79
e 63 80
e 63 87
e 63 100
e 63 104
e 63 105
e 63 109
e 64 67
e 64 73
e 64 74
e 64 78
e 64 100
e 65 67
e 65 70
e 65 71
e 65 76
e 65 81
e 65 85
e 65 91
e 65 95
e 66 86
e 66 88
e 66 93
e 66 94
e 66 96
e 66 107
e 67 70
e 67 73
e 67 78
e 67 81
e 67 91
e 67 95
e 67 100
e 67 109
e 68 72
e 68 75
e 68 82
e 68 89
e 68 92
e 68 98
e 68 110
e 69 77
e 69 79
e 69 80
e 69 87
e 69 104
e 69 105
e 69 106
e 70 71
e 70 76
e 70 78
e 70 81
e 70 84
e 70 85
e 70 86
e 70 91
e 70 95
e 70 96
e 70 99
e 70 103
e 71 76
e 71 81
e 71 85
e 71 86
e 71 91
e 71 93
e 71 94
e 71 95
e 71 96
e 71 107
e 72 75
e 72 82
e 72 88
e 72 92
e 72 98
e 72 110
e 73 74
e 73 78
e 73 79
e 73 100
e 73 109
e 74 78
e 74 100
e 74 109
e 75 82
e 75 84
e 75 89
e 75 90
e 75 92
e 75 98
e 75 99
e 75 102
e 75 103
e 75 108
e 75 110
e 76 81
e 76 85
e 76 86
e 76 88
e 76 91
e 76 94
e 76 95
e 76 96
e 76 103
e 76 107
e 77 79
e 77 80
e 77 87
e 77 104
e 77 105
e 77 106
e 78 79
e 78 81
e 78 84
e 78 91
e 78 100
e 78 109
e 79 80
e 79 87
e 79 100
e 79 104
e 79 105
e 79 109
e 80 83
e 80 87
e 80 90
e 80 97
e 80 102
e 80 104
e 80 105
e 80 106
e 80 108
e 81 84
e 81 85
e 81 86
e 81 91
e 81 95
e 81 99
e 81 100
e 81 103
e 82 89
e 82 92
e 82 98
e 82 110
e 83 87
e 83 97
e 83 101
e 83 102
e 83 105
e 83 106
e 83 108
e 84 86
e 84 90
e 84 91
e 84 95
e 84 99
e 84 102
e 84 103
e 84 105
e 84 108
e 85 86
e 85 91
e 85 93
e 85 94
e 85 95
e 85 96
e 85 107
e 86 88
e 86 91
e 86 93
e 86 94
e 86 95
e 86 96
e 86 99
e 86 103
e 86 107
e 87 97
e 87 104
e 87 105
e 87 106
e 88 92
e 88 93
e 88 94
e 88 96
e 88 103
e 88 107
e 89 92
e 89 98
e 89 110
e 90 92
e 90 97
e 90 99
e 90 101
e 90 102
e 90 103
e 90 105
e 90 108
e 91 95
e 91 96
e 91 103
e 92 98
e 92 99
e 92 102
e 92 103
e 92 110
e 93 94
e 93 96
e 93 107
e 94 95
e 94 96
e 94 107
e 95 96
e 95 103
e 95 107
e 96 107
e 97 101
e 97 102
e 97 105
e 97 106
e 97 108
e 98 110
e 99 102
e 99 103
e 99 108
e 100 109
e 101 102
e 101 108
e 102 105
e 102 108
e 102 110
e 104 105
e 104 109
e 105 106
e 105 108
e 106 108
